qe/outputs/qe/cbrdelay_obs_newl/T=6,eliminate=[I_0,I_1,I_2,I_3,I_4,I_5,L_4,L_5,C,lhs=B].smt2
; benchmark generated from python API
(set-info :status unknown)
(declare-fun S_1 () Real)
(declare-fun S_3 () Real)
(declare-fun S_5 () Real)
(declare-fun L_0 () Real)
(declare-fun A_0 () Real)
(declare-fun A_1 () Real)
(declare-fun L_1 () Real)
(declare-fun S_0 () Real)
(declare-fun S_2 () Real)
(declare-fun A_3 () Real)
(declare-fun L_3 () Real)
(declare-fun L_2 () Real)
(declare-fun A_2 () Real)
(declare-fun A_4 () Real)
(declare-fun B () Real)
(declare-fun S_4 () Real)
(declare-fun A_5 () Real)
(assert
 (let (($x30946 (<= (+ (* (- 3.0) S_5) (* (- 1.0) A_0) (* 4.0 S_3) L_0) 0.0)))
 (let (($x33664 (<= (+ (* (- (/ 2.0 3.0)) S_5) (* (/ 1.0 3.0) L_1) (* (- (/ 1.0 3.0)) A_1) S_3) 0.0)))
 (let (($x39 (>= L_0 0.0)))
 (let (($x989 (>= B 5.0)))
 (let ((?x405 (* (- 1.0) S_1)))
 (let ((?x2331 (* 2.0 A_3)))
 (let ((?x2339 (* (- 2.0) L_3)))
 (let ((?x3154 (* (- 2.0) S_5)))
 (let (($x96433 (or (<= (+ ?x3154 ?x2339 ?x2331 S_2 ?x405) 0.0) (<= (+ (* (- 1.0) S_5) (* 2.0 S_2) ?x405) 0.0))))
 (let ((?x8761 (* 3.0 S_2)))
 (let ((?x1668 (* 2.0 B)))
 (let ((?x2370 (* (- 2.0) A_3)))
 (let ((?x2375 (* 2.0 L_3)))
 (let (($x76 (= L_3 L_2)))
 (let (($x111093 (or $x76 (<= (+ ?x2375 ?x2370 ?x1668 (* (- 1.0) A_0) ?x8761 L_0) 0.0))))
 (let (($x61477 (<= (+ L_3 (* (- 1.0) A_3) B (* 2.0 S_1) (* (- 1.0) S_0)) 0.0)))
 (let ((?x1295 (* (- 1.0) S_0)))
 (let ((?x1269 (* (- 2.0) L_2)))
 (let ((?x1268 (* 2.0 A_2)))
 (let ((?x7023 (* (/ 1.0 3.0) S_0)))
 (let ((?x11192 (* (/ 1.0 3.0) B)))
 (let (($x93886 (<= (+ L_3 (* (- 1.0) A_3) A_2 (* (- 1.0) L_2) B) (- 5.0))))
 (let (($x221499 (or $x76 $x93886 (<= (+ (* (/ 1.0 3.0) L_3) (* (- (/ 1.0 3.0)) A_3) ?x11192 ?x7023) (- 5.0)) (<= (+ L_3 (* (- 1.0) A_3) A_1 (* (- 1.0) L_1) B) (- 10.0)))))
 (let ((?x8753 (* 4.0 S_2)))
 (let ((?x1674 (* 3.0 B)))
 (let ((?x2372 (* (- 3.0) A_3)))
 (let ((?x2378 (* 3.0 L_3)))
 (let (($x106943 (<= 0.0 (+ (* 2.0 S_5) ?x2378 ?x2372 (* (- 1.0) L_1) A_1 B))))
 (let (($x98885 (not (<= 0.0 (+ S_5 (* (/ 4.0 3.0) L_3) (* (- (/ 4.0 3.0)) A_3) ?x11192 ?x7023)))))
 (let ((?x440 (* (- 1.0) A_2)))
 (let ((?x271 (* (- 1.0) B)))
 (let ((?x432 (* (- 1.0) S_5)))
 (let (($x2342 (<= (+ ?x432 ?x2339 ?x2331 ?x271 ?x440 L_2) 0.0)))
 (let (($x2382 (not $x2342)))
 (let (($x97557 (<= 0.0 (+ S_5 ?x440 L_2 ?x271 (* (- 2.0) S_2) (* 2.0 S_0)))))
 (let (($x1957 (<= (+ (* (- 1.0) L_1) A_1 (* (- 1.0) S_2)) 0.0)))
 (let (($x94914 (or $x1957 (<= (+ S_5 ?x440 L_2 (* (- 3.0) S_2) (* 3.0 S_0)) 0.0))))
 (let ((?x7012 (* (/ 2.0 3.0) S_0)))
 (let (($x23039 (<= (+ S_5 (* (/ 5.0 3.0) L_3) (* (- (/ 5.0 3.0)) A_3) (* (/ 5.0 3.0) B) ?x7012) 0.0)))
 (let (($x3775 (<= (+ S_5 ?x2378 ?x2372 ?x1268 ?x1269 ?x1674) 0.0)))
 (let (($x228782 (or $x76 $x3775 $x23039 (<= (+ S_5 ?x2375 ?x2370 A_1 (* (- 1.0) L_1) ?x1668) 0.0))))
 (let ((?x4957 (* (- (/ 1.0 2.0)) L_2)))
 (let ((?x6486 (* (/ 1.0 2.0) S_0)))
 (let ((?x438 (* (- 1.0) A_1)))
 (let ((?x4952 (* (/ 1.0 2.0) A_2)))
 (let ((?x4117 (* (- (/ 1.0 2.0)) B)))
 (let (($x3430 (<= (+ ?x432 (* (- 1.0) L_3) A_3 A_2 ?x438 L_1 (* (- 1.0) L_2)) 0.0)))
 (let (($x66 (= L_2 L_1)))
 (let (($x224698 (or $x66 (not $x3430) (not (<= 0.0 (+ ?x4117 ?x4952 ?x438 ?x6486 L_1 ?x4957))))))
 (let ((?x4861 (* (/ 1.0 2.0) L_2)))
 (let ((?x4866 (* (- (/ 1.0 2.0)) A_2)))
 (let ((?x443 (* (- 1.0) A_3)))
 (let (($x101848 (<= 0.0 (+ ?x432 (* (- 1.0) L_3) A_3 A_2 ?x438 (* (- 1.0) L_2) L_1))))
 (let (($x221039 (or $x66 $x101848 (not (<= 0.0 (+ S_5 L_3 ?x443 ?x4117 ?x4866 ?x6486 ?x4861))))))
 (let (($x44607 (<= (+ S_5 (* (- 3.0) L_1) (* 3.0 A_1) (* (- 4.0) S_3)) 0.0)))
 (let (($x3279 (<= (+ A_2 (* (- 1.0) L_2) (* (- 1.0) S_3)) 0.0)))
 (let (($x95266 (or $x3279 (<= (+ S_5 (* (- (/ 5.0 2.0)) S_3) (* (/ 3.0 2.0) S_0)) 0.0) $x44607)))
 (let (($x16956 (<= (+ S_5 ?x1268 ?x1269 (* (- 3.0) S_4)) 0.0)))
 (let (($x515 (<= 0.0 (+ L_3 ?x443 S_4))))
 (let (($x110182 (or $x515 $x16956 (<= (+ (* (/ 3.0 5.0) S_5) (* (- 1.0) S_4) (* (/ 2.0 5.0) S_0)) 0.0) (<= (+ S_5 A_1 (* (- 1.0) L_1) (* (- 2.0) S_4)) 0.0))))
 (let (($x35028 (not (<= (+ ?x432 (* (- 1.0) L_3) A_3 B ?x438 S_3 L_1) 0.0))))
 (let (($x111728 (or $x3279 $x35028 (not (<= 0.0 (+ S_5 L_3 ?x443 ?x271 (* (- (/ 1.0 2.0)) S_3) ?x6486))))))
 (let (($x37356 (<= (+ ?x2378 ?x2372 A_1 (* (- 1.0) L_1) (* 2.0 S_4) ?x1674) 0.0)))
 (let (($x20313 (<= (+ (* (/ 4.0 3.0) L_3) (* (- (/ 4.0 3.0)) A_3) (* (/ 4.0 3.0) B) S_4 ?x7023) 0.0)))
 (let (($x3411 (<= (+ ?x2375 ?x2370 A_2 (* (- 1.0) L_2) ?x1668 S_4) 0.0)))
 (let (($x109941 (or $x515 $x16956 (<= (+ (* (/ 1.0 2.0) S_5) (* (- 1.0) S_4) (* (/ 1.0 2.0) S_1)) 0.0))))
 (let (($x23629 (<= (+ (* (/ 3.0 2.0) B) (* (- (/ 3.0 2.0)) A_2) S_3 ?x6486 (* (/ 3.0 2.0) L_2)) 0.0)))
 (let ((?x1273 (* 2.0 L_2)))
 (let ((?x1272 (* (- 2.0) A_2)))
 (let ((?x280 (* (- 1.0) L_1)))
 (let (($x96148 (<= (+ ?x432 (* (- 1.0) L_3) A_3) (- 5.0))))
 (let (($x91819 (<= (+ (* (- (/ 1.0 2.0)) S_5) ?x4952 ?x4957) (- 5.0))))
 (let (($x109918 (or $x91819 $x96148 (<= (+ (* (- (/ 1.0 4.0)) S_5) (* (/ 1.0 4.0) S_0)) (- 5.0)) (<= (+ (* (- (/ 1.0 3.0)) S_5) (* (- (/ 1.0 3.0)) L_1) (* (/ 1.0 3.0) A_1)) (- 5.0)))))
 (let ((?x1155 (* (- 2.0) L_1)))
 (let ((?x4629 (* (- 2.0) S_3)))
 (let ((?x1164 (* 2.0 A_1)))
 (let (($x90061 (or $x3279 (<= (+ S_5 L_3 ?x443 (* (- 1.0) S_3) S_0) 0.0) (<= (+ S_5 L_3 ?x443 ?x1164 ?x4629 ?x1155) 0.0))))
 (let (($x29689 (<= (+ ?x432 (* (- 1.0) L_3) A_3 A_2 (* (- 1.0) L_2) ?x405) 0.0)))
 (let (($x103109 (<= 0.0 (+ S_5 (* (- (/ 1.0 2.0)) L_1) (* (/ 1.0 2.0) A_1) ?x271 (* (- (/ 3.0 2.0)) S_4)))))
 (let (($x1660 (not (<= (+ ?x432 B ?x440 (* 2.0 S_4) L_2) 0.0))))
 (let (($x226716 (or $x515 $x1660 (not (<= 0.0 (+ S_5 ?x271 (* (- (/ 4.0 3.0)) S_4) ?x7023))) (not $x103109))))
 (let (($x505 (<= 0.0 (+ S_5 ?x1155 ?x1164 ?x1668 (* (- 3.0) A_2) (* 3.0 L_2)))))
 (let (($x225473 (or $x66 (not $x505) (not (<= 0.0 (+ S_5 B ?x1272 S_0 ?x1273))))))
 (let (($x109823 (or $x515 (<= (+ (* (- 1.0) S_4) (* 2.0 S_1) ?x1295) 0.0) (<= (+ ?x1268 ?x1269 (* (- 2.0) S_4) S_1 ?x1295) 0.0))))
 (let (($x98628 (<= (+ A_2 (* (- 1.0) L_2) (* (- 1.0) S_4)) (- 5.0))))
 (let ((?x6163 (* (- 5.0) B)))
 (let ((?x23131 (* 5.0 A_3)))
 (let ((?x19785 (* (- 5.0) L_3)))
 (let ((?x19750 (* (- 4.0) S_5)))
 (let (($x104464 (<= 0.0 (+ S_5 ?x1668 (* (- 3.0) A_2) (* 2.0 S_1) (* 3.0 L_2)))))
 (let (($x226993 (or $x515 $x1660 (not (<= 0.0 (+ S_5 ?x271 (* (- (/ 3.0 2.0)) S_4) (* (/ 1.0 2.0) S_1)))))))
 (let ((?x7229 (* (/ 3.0 2.0) S_0)))
 (let (($x26801 (<= (+ S_5 (* (/ 5.0 2.0) B) (* (- (/ 5.0 2.0)) A_2) ?x7229 (* (/ 5.0 2.0) L_2)) 0.0)))
 (let ((?x1305 (* 4.0 L_2)))
 (let ((?x1304 (* (- 4.0) A_2)))
 (let ((?x1968 (* 4.0 B)))
 (let ((?x1294 (* 3.0 A_1)))
 (let ((?x1296 (* (- 3.0) L_1)))
 (let (($x227663 (or (<= (+ ?x432 (* (- 1.0) A_0) (* 2.0 S_2) L_0) 0.0) (<= (+ ?x3154 ?x2339 ?x2331 (* (- 1.0) A_0) S_2 L_0) 0.0))))
 (let (($x225960 (or $x76 (<= (+ L_3 ?x443 ?x438 L_1 (* 2.0 S_2) B) 0.0))))
 (let (($x46847 (<= (+ ?x1674 (* (- 3.0) A_2) S_4 (* 2.0 S_1) (* 3.0 L_2)) 0.0)))
 (let (($x227143 (or (<= (+ ?x3154 ?x2339 ?x2331 A_2 ?x405 (* (- 1.0) L_2) ?x271) 0.0) (<= (+ ?x432 (* (- 2.0) B) ?x1268 ?x405 ?x1269) 0.0))))
 (let ((?x8127 (* (/ 3.0 2.0) S_1)))
 (let ((?x1322 (* (- 1.0) A_0)))
 (let ((?x4020 (* (/ 1.0 2.0) B)))
 (let ((?x15409 (* (- (/ 1.0 2.0)) A_3)))
 (let ((?x15404 (* (/ 1.0 2.0) L_3)))
 (let (($x16785 (<= (+ L_3 ?x443 A_2 (* (- 1.0) L_2) B ?x1322 S_1 L_0) 0.0)))
 (let (($x543 (<= 0.0 (+ L_3 ?x443 ?x1268 ?x438 L_1 ?x1269 ?x271))))
 (let (($x541 (not $x543)))
 (let ((?x2703 (* 3.0 L_1)))
 (let ((?x5130 (* 2.0 S_0)))
 (let ((?x2686 (* (- 3.0) A_1)))
 (let ((?x314 (* (- 1.0) L_3)))
 (let (($x56 (= L_1 L_0)))
 (let (($x31721 (<= (+ (* (- (/ 1.0 3.0)) S_5) (* (/ 2.0 3.0) L_1) (* (- (/ 2.0 3.0)) A_1) S_2) 0.0)))
 (let (($x80858 (or $x66 (<= (+ L_3 ?x443 ?x4020 ?x4866 S_4 ?x6486 ?x4861) 0.0) (<= (+ L_3 ?x443 B ?x440 A_1 S_4 ?x280 L_2) 0.0))))
 (let ((?x17157 (* (/ 2.0 3.0) L_1)))
 (let ((?x17320 (* (- (/ 2.0 3.0)) A_1)))
 (let ((?x8383 (* (- (/ 1.0 3.0)) S_5)))
 (let (($x100682 (<= 0.0 (+ ?x15404 ?x15409 ?x4020 (* (- (/ 1.0 2.0)) A_1) S_2 (* (/ 1.0 2.0) L_1)))))
 (let (($x109011 (or $x66 (<= (+ ?x280 A_1 B ?x440 L_2) (- 5.0)) (<= (+ ?x4020 ?x4866 ?x6486 ?x4861) (- 5.0)))))
 (let ((?x1677 (* (- 4.0) B)))
 (let ((?x23133 (* 4.0 A_3)))
 (let ((?x19977 (* (- 4.0) L_3)))
 (let ((?x8537 (* (- 3.0) S_5)))
 (let (($x91371 (<= 0.0 (+ ?x314 L_2))))
 (let (($x2398 (<= (+ ?x2375 ?x2370 ?x271 (* 3.0 A_2) ?x1322 (* (- 3.0) L_2) L_0) 0.0)))
 (let (($x108076 (<= 0.0 (+ S_5 (* (/ 3.0 2.0) L_3) (* (- (/ 3.0 2.0)) A_3) ?x4020 (* (/ 1.0 2.0) S_1)))))
 (let ((?x8126 (* (/ 1.0 2.0) S_1)))
 (let ((?x4145 (* (/ 3.0 2.0) B)))
 (let ((?x15437 (* (- (/ 3.0 2.0)) A_3)))
 (let ((?x15405 (* (/ 3.0 2.0) L_3)))
 (let ((?x418 (* (- 1.0) S_3)))
 (let ((?x11344 (* (- (/ 2.0 3.0)) B)))
 (let ((?x23298 (* (/ 2.0 3.0) A_3)))
 (let ((?x12525 (* (- (/ 2.0 3.0)) L_3)))
 (let ((?x4127 (* (- (/ 1.0 2.0)) L_1)))
 (let ((?x4106 (* (/ 1.0 2.0) A_1)))
 (let ((?x15434 (* (/ 1.0 2.0) A_3)))
 (let ((?x15415 (* (- (/ 1.0 2.0)) L_3)))
 (let (($x227926 (or $x3279 (<= (+ ?x15415 ?x15434 ?x4117 ?x4106 ?x418 ?x4127) 0.0) (<= (+ ?x12525 ?x23298 ?x11344 ?x418 ?x7023) 0.0))))
 (let (($x108519 (or $x3279 (not (<= 0.0 (+ S_5 ?x271 ?x4629 S_0))) (not (<= 0.0 (+ S_5 ?x1155 ?x1164 ?x271 (* (- 3.0) S_3)))))))
 (let (($x31164 (<= (+ A_2 (* (- 1.0) L_2) ?x1322 (* (- 1.0) S_4) S_1 L_0) 0.0)))
 (let (($x35790 (<= (+ (* (- (/ 1.0 2.0)) A_1) (* (/ 1.0 2.0) L_1) (* (- (/ 1.0 2.0)) S_4) S_2) 0.0)))
 (let (($x86981 (or (<= (+ (* (- (/ 2.0 3.0)) S_5) (* (/ 5.0 3.0) S_1) ?x1295) 0.0) (<= (+ ?x432 A_2 (* (- 1.0) L_2) S_1 ?x1295) 0.0) (<= (+ ?x3154 ?x2339 ?x2331 S_1 ?x1295) 0.0))))
 (let (($x108238 (or $x3279 (<= (+ L_3 ?x443 S_4 (* (- (/ 1.0 2.0)) S_3) ?x6486) 0.0) (<= (+ L_3 ?x443 A_1 S_4 ?x418 ?x280) 0.0))))
 (let (($x1950 (<= (+ ?x1155 ?x1164 ?x1674 (* (- 3.0) A_2) S_4 (* 3.0 L_2)) 0.0)))
 (let (($x222304 (or $x76 $x2382 (not (<= 0.0 (+ (* 2.0 S_5) ?x2378 ?x2372 A_1 ?x280))))))
 (let ((?x1671 (* (- 3.0) B)))
 (let ((?x411 (* (- 1.0) S_2)))
 (let ((?x2578 (* 3.0 A_3)))
 (let ((?x3159 (* (- 3.0) L_3)))
 (let (($x23296 (<= (+ (* (- (/ 1.0 3.0)) L_3) (* (/ 1.0 3.0) A_3) (* (- (/ 1.0 3.0)) B) ?x411 ?x7012) 0.0)))
 (let ((?x27037 (* (- (/ 5.0 2.0)) L_2)))
 (let ((?x27035 (* (/ 5.0 2.0) A_2)))
 (let ((?x27038 (* (- (/ 5.0 2.0)) B)))
 (let ((?x5013 (* (- (/ 3.0 2.0)) S_5)))
 (let (($x226278 (or (<= (+ ?x8537 ?x3159 ?x2578 A_2 ?x1295 (* (- 1.0) L_2) ?x271) 0.0) (<= (+ ?x5013 ?x27038 ?x27035 ?x1295 ?x27037) 0.0))))
 (let (($x225206 (or $x76 (not (<= 0.0 (+ S_5 ?x2375 ?x2370 A_2 (* (- 1.0) L_2)))))))
 (let (($x106154 (not (<= (- 5.0) (+ ?x438 S_0 L_1)))))
 (let ((?x10759 (+ ?x440 A_1 ?x280 L_2)))
 (let (($x97666 (<= (- 5.0) ?x10759)))
 (let (($x107455 (or $x56 $x76 (<= (+ L_3 ?x443 ?x1668 ?x438 (* 2.0 S_2) L_1) 0.0))))
 (let (($x6218 (<= (+ L_3 ?x443 (* (- 2.0) B) ?x1294 (* (- 2.0) S_1) ?x1296) 0.0)))
 (let (($x224415 (or (<= (+ L_3 ?x443 A_2 (* (- 1.0) L_2) A_1 ?x405 ?x280) 0.0) $x6218 $x91371)))
 (let (($x12493 (<= (+ A_2 (* (- 1.0) L_2) ?x271 A_1 (* (- 1.0) S_4) ?x405 ?x280) 0.0)))
 (let ((?x4142 (* (- (/ 3.0 2.0)) L_1)))
 (let ((?x4120 (* (- (/ 1.0 2.0)) S_4)))
 (let ((?x4141 (* (/ 3.0 2.0) A_1)))
 (let ((?x4111 (* (- (/ 3.0 2.0)) B)))
 (let (($x95414 (<= 0.0 (+ S_5 (* (- 2.0) B) A_2 (* (- 2.0) S_4) (* (- 1.0) L_2)))))
 (let (($x221696 (or $x515 (<= (+ S_5 (* (- 2.0) B) ?x1268 (* (- 3.0) S_4) ?x1269) 0.0))))
 (let (($x2324 (<= (+ ?x2375 ?x2370 ?x271 (* 3.0 A_2) ?x405 (* (- 3.0) L_2)) 0.0)))
 (let (($x61243 (<= (+ ?x432 ?x314 A_3 ?x271 A_2 ?x438 L_1 (* (- 1.0) L_2)) 0.0)))
 (let ((?x1187 (* (- 3.0) L_2)))
 (let ((?x1169 (* 3.0 A_2)))
 (let ((?x1149 (* (- 2.0) A_1)))
 (let ((?x1069 (* 2.0 L_1)))
 (let (($x48284 (<= (+ (* (- (/ 1.0 2.0)) S_5) ?x4111 (* (/ 3.0 2.0) A_2) ?x411 (* (- (/ 3.0 2.0)) L_2)) 0.0)))
 (let (($x229007 (or (<= (+ ?x432 ?x314 A_3 A_2 ?x411 (* (- 1.0) L_2) ?x271) 0.0) $x48284)))
 (let (($x21975 (<= (+ ?x3154 ?x2339 ?x2331 A_2 ?x1322 (* (- 1.0) L_2) ?x271 L_0) 0.0)))
 (let (($x107078 (or $x515 (<= 0.0 (+ ?x438 (* (/ 1.0 3.0) S_4) ?x7012 L_1)) (<= (+ (* (- (/ 1.0 3.0)) S_4) ?x7023) (- 5.0)) $x98628)))
 (let (($x1937 (<= (+ L_1 ?x438 (* (- 2.0) B) ?x1268 (* (- 1.0) S_4) ?x1269) 0.0)))
 (let (($x227998 (or $x515 (<= (+ ?x1671 ?x1169 ?x1322 (* (- 2.0) S_4) ?x1187 L_0) 0.0))))
 (let (($x94673 (not (<= 0.0 (+ S_5 (* (- 3.0) A_2) ?x1164 ?x1155 (* 3.0 L_2))))))
 (let (($x225203 (or $x515 (<= (+ (* (- 2.0) B) ?x1268 (* (- 1.0) S_4) ?x411 ?x1269) 0.0))))
 (let (($x71245 (or $x3279 (<= (+ (* (/ 1.0 2.0) S_4) ?x418 ?x6486) 0.0) (<= (+ ?x1155 ?x1164 S_4 (* (- 3.0) S_3)) 0.0))))
 (let (($x106094 (or $x56 $x515 (<= (+ ?x4020 (* (- (/ 1.0 2.0)) A_1) ?x4120 S_2 (* (/ 1.0 2.0) L_1)) 0.0))))
 (let (($x69146 (or (<= (+ ?x8537 ?x3159 ?x2578 S_2 ?x1295) 0.0) (<= (+ ?x5013 (* (/ 5.0 2.0) S_2) ?x1295) 0.0))))
 (let (($x11153 (<= (+ ?x1268 ?x1269 ?x271 A_1 (* (- 2.0) S_4) ?x1295 ?x280) 0.0)))
 (let (($x221444 (or $x515 (<= (+ (* (- 2.0) B) ?x1164 (* (- 1.0) S_4) ?x1295 ?x1155) 0.0) $x11153)))
 (let (($x226692 (or $x515 $x1660 (not (<= 0.0 (+ S_5 ?x4111 ?x4106 (* (- (/ 3.0 2.0)) S_4) ?x4127))))))
 (let (($x223034 (or (<= (+ ?x8383 ?x1322 (* (/ 4.0 3.0) S_1) L_0) 0.0) (<= (+ (* (- (/ 1.0 2.0)) S_5) ?x4952 ?x1322 ?x4957 S_1 L_0) 0.0) (<= (+ ?x432 ?x314 A_3 ?x1322 S_1 L_0) 0.0))))
 (let (($x222630 (or $x3279 (<= (+ S_5 L_3 ?x443 (* (- 2.0) B) ?x1164 ?x4629 ?x1155) 0.0))))
 (let (($x17300 (<= (+ ?x8383 (* (- (/ 4.0 3.0)) B) (* (/ 4.0 3.0) A_1) ?x405 (* (- (/ 4.0 3.0)) L_1)) 0.0)))
 (let (($x112419 (or (<= (+ ?x432 ?x314 A_3 ?x271 A_1 ?x405 ?x280) 0.0) (<= (+ (* (- (/ 1.0 2.0)) S_5) ?x4952 A_1 ?x4957 ?x405 ?x280 ?x271) 0.0) $x17300)))
 (let (($x220358 (or $x76 $x3411 (<= (+ ?x2378 ?x2372 ?x1668 A_1 (* 2.0 S_4) ?x280) 0.0))))
 (let (($x101344 (not (<= 0.0 (+ S_5 L_3 ?x443 (* (- 2.0) B) A_1 ?x418 ?x280)))))
 (let (($x54555 (or $x66 (<= (+ B ?x440 ?x1322 (* 2.0 S_1) L_2 L_0) 0.0))))
 (let (($x96253 (not $x91371)))
 (let (($x220332 (or $x66 (<= 0.0 (+ ?x443 ?x1268 ?x438 L_1 (* (- 1.0) L_2))) $x96253)))
 (let (($x2346 (<= (+ ?x2339 ?x2331 B (* (- 3.0) A_2) S_0 (* 3.0 L_2)) 0.0)))
 (let (($x111852 (or $x1957 (not (<= 0.0 (+ S_5 ?x271 (* (- 4.0) S_2) (* 3.0 S_0)))))))
 (let (($x220306 (or $x3279 (not (<= 0.0 (+ S_5 ?x271 (* (- 3.0) S_3) (* 2.0 S_1)))))))
 (let (($x17324 (<= (+ (* (- (/ 2.0 3.0)) S_5) ?x11192 (* (- (/ 1.0 3.0)) A_1) S_3 (* (/ 1.0 3.0) L_1)) 0.0)))
 (let (($x1265 (<= (+ (* (- 3.0) A_2) ?x1164 S_4 ?x1155 (* 3.0 L_2) B) 0.0)))
 (let (($x114083 (or $x76 (<= (+ ?x2375 ?x2370 ?x1268 ?x1269 B A_1 ?x1295 ?x280) 0.0) (<= (+ L_3 ?x443 ?x271 ?x1164 ?x1295 ?x1155) 0.0))))
 (let (($x220893 (or $x3279 (<= (+ ?x1164 S_4 (* (- 3.0) S_3) ?x1155 (* (- 2.0) B)) 0.0))))
 (let (($x102555 (<= (+ ?x8383 (* (- (/ 1.0 3.0)) B) (* (/ 1.0 3.0) A_1) (* (- (/ 1.0 3.0)) L_1)) (- 5.0))))
 (let (($x97931 (<= 0.0 (+ S_5 ?x1674 (* (- 4.0) A_1) (* 3.0 S_0) (* 4.0 L_1)))))
 (let ((?x15120 (+ S_5 (* 5.0 B) (* (- 5.0) A_1) (* 4.0 S_0) (* 5.0 L_1))))
 (let (($x15098 (<= (+ ?x1968 (* (- 4.0) A_1) S_4 (* 3.0 S_0) (* 4.0 L_1)) 0.0)))
 (let ((?x1615 (* (- 2.0) B)))
 (let (($x6279 (<= (+ L_3 ?x443 ?x1615 ?x1294 (* (- 2.0) A_0) ?x1296 (* 2.0 L_0)) 0.0)))
 (let (($x3837 (<= (+ L_3 ?x443 A_2 (* (- 1.0) L_2) A_1 ?x1322 ?x280 L_0) 0.0)))
 (let ((?x17315 (* (- (/ 5.0 3.0)) L_1)))
 (let ((?x17297 (* (/ 5.0 3.0) A_1)))
 (let ((?x17313 (* (- (/ 5.0 3.0)) B)))
 (let ((?x8379 (* (- (/ 2.0 3.0)) S_5)))
 (let (($x113926 (or (<= (+ ?x3154 ?x2339 ?x2331 ?x271 A_1 ?x1295 ?x280) 0.0) (<= (+ ?x432 A_2 A_1 (* (- 1.0) L_2) ?x1295 ?x280 ?x271) 0.0) (<= (+ ?x8379 ?x17313 ?x17297 ?x1295 ?x17315) 0.0))))
 (let (($x1611 (not $x66)))
 (let (($x1197 (<= (+ ?x432 ?x1169 ?x1149 ?x1069 ?x1187 ?x271) 0.0)))
 (let ((?x17167 (* (- (/ 4.0 3.0)) L_1)))
 (let ((?x17162 (* (/ 4.0 3.0) A_1)))
 (let ((?x11411 (* (- (/ 4.0 3.0)) B)))
 (let (($x4976 (<= (+ (* (- (/ 1.0 2.0)) S_5) ?x4952 A_1 ?x1322 ?x4957 ?x280 ?x271 L_0) 0.0)))
 (let (($x107021 (or (<= (+ ?x432 ?x314 A_3 ?x271 A_1 ?x1322 ?x280 L_0) 0.0) $x4976 (<= (+ ?x8383 ?x11411 ?x17162 ?x1322 ?x17167 L_0) 0.0))))
 (let (($x101216 (or $x56 (<= (+ ?x432 ?x314 A_3 B ?x438 S_2 L_1) 0.0) (not (<= 0.0 (+ L_3 ?x443 B ?x438 (* 2.0 S_2) L_1))))))
 (let (($x100628 (or $x3279 (<= (+ (* (- (/ 1.0 2.0)) S_3) ?x6486) (- 5.0)) (<= 0.0 (+ ?x438 (* (/ 1.0 2.0) S_3) ?x6486 L_1)))))
 (let (($x225122 (or $x66 (not (<= 0.0 (+ S_5 L_3 ?x443 ?x271 ?x440 A_1 ?x280 L_2))))))
 (let (($x223100 (or $x56 $x543 (<= (+ ?x1268 ?x438 (* (- 1.0) S_4) L_1 ?x1269 ?x271) 0.0))))
 (let (($x1682 (<= (+ ?x1677 (* 4.0 A_2) (* (- 3.0) S_4) ?x1295 (* (- 4.0) L_2)) 0.0)))
 (let ((?x425 (* (- 1.0) S_4)))
 (let ((?x297 (* (- 1.0) L_2)))
 (let (($x111105 (or $x515 (<= (+ ?x4111 ?x4141 ?x1322 ?x4120 ?x4142 L_0) 0.0) (<= (+ A_2 ?x297 ?x271 A_1 ?x1322 ?x425 ?x280 L_0) 0.0))))
 (let (($x223901 (or $x515 $x11153 (not (<= 0.0 (+ ?x4117 ?x440 ?x4106 (* (/ 1.0 2.0) S_4) ?x4127 L_2))))))
 (let (($x227151 (or $x3279 (not (<= 0.0 (+ S_5 ?x1671 ?x1164 (* (- 3.0) S_3) ?x1155))))))
 (let (($x4764 (<= (+ A_1 ?x418 ?x280 ?x271) (- 5.0))))
 (let (($x2348 (<= (+ ?x2378 ?x2372 ?x271 (* 4.0 A_2) ?x1295 (* (- 4.0) L_2)) 0.0)))
 (let (($x1030 (not $x56)))
 (let (($x112818 (or $x66 $x1030 (<= (+ ?x314 A_3 ?x1272 A_1 ?x1273 (* (- 1.0) L_0)) 0.0))))
 (let (($x1285 (<= (+ A_1 ?x411 ?x280 ?x271) 0.0)))
 (let (($x1279 (<= (+ A_2 ?x418 ?x297 ?x271) 0.0)))
 (let (($x128 (>= S_1 S_0)))
 (let (($x131 (>= S_2 S_1)))
 (let (($x134 (>= S_3 S_2)))
 (let (($x137 (>= S_4 S_3)))
 (let (($x140 (>= S_5 S_4)))
 (let (($x142 (>= A_1 A_0)))
 (let (($x143 (>= A_2 A_1)))
 (let (($x144 (>= A_3 A_2)))
 (let (($x146 (>= A_5 A_4)))
 (and (<= (+ A_3 ?x314) S_5) $x146 $x144 $x143 $x142 $x140 $x137 $x134 $x131 $x128 (or (not (<= 0.0 (+ ?x280 L_0))) $x56) $x1279 $x1285 (or $x66 (not (<= 0.0 (+ L_1 ?x297)))) (or $x56 (<= (+ ?x438 S_1 L_1 B) 0.0)) (or $x66 (<= ?x10759 (- 5.0))) (or $x56 (<= (+ A_2 ?x1149 S_0 ?x1069 ?x297 B) 0.0)) (or $x66 (<= (+ ?x440 S_2 L_2 B) 0.0)) (or $x66 (<= (+ ?x440 ?x1164 ?x1322 ?x1155 L_2 ?x271 L_0) 0.0)) (or $x56 $x66 $x76 (= (+ L_3 ?x443 ?x1268 ?x438 L_1 ?x1269) 0.0)) (or $x96253 $x76) (<= (+ ?x314 A_3 ?x271 ?x425) 0.0) (or $x66 (<= (+ ?x1272 ?x1294 ?x1295 ?x1296 ?x1273 ?x271) 0.0)) (or $x76 (<= (+ L_3 ?x443 B S_3) 0.0)) (or $x76 (<= (+ ?x2375 ?x2370 B A_2 S_4 ?x297) 0.0)) (or $x543 (<= 0.0 (+ ?x280 L_0)) $x1197) (or $x66 (<= (+ ?x440 ?x1164 ?x405 ?x1155 L_2 ?x271) 0.0)) (or $x76 (<= (+ L_3 ?x443 ?x271 ?x1268 ?x411 ?x1269) 0.0)) $x112818 (or $x76 $x2348) (or $x56 $x515 $x541) (or $x66 (<= (+ S_5 B ?x1304 ?x1294 ?x1296 ?x1305) 0.0)) (or $x3279 (<= (+ ?x1164 ?x1322 ?x418 ?x1155 ?x1615 L_0) 0.0)) (or $x3279 (<= (+ ?x1294 ?x4629 ?x1295 ?x1296 ?x1671) 0.0)) (or $x3279 (<= (+ ?x1164 ?x418 ?x405 ?x1155 ?x1615) 0.0)) $x4764 (or $x3279 (<= (+ ?x418 S_1) (- 5.0))) (or $x515 (<= (+ ?x425 S_2) (- 5.0))) (or $x515 (<= (+ S_5 (* (- 3.0) S_4) (* 2.0 S_2)) 0.0)) (or $x3279 (<= (+ S_4 (* (- 3.0) S_3) (* 2.0 S_1)) 0.0)) (or $x56 (<= (+ B ?x438 S_0 L_1) (- 5.0))) (<= (+ ?x432 ?x2339 ?x2331 ?x440 L_2 ?x1615) 0.0) (or $x1957 (<= (+ ?x411 S_0) (- 5.0))) (or $x66 (<= (+ ?x1272 A_1 S_3 ?x280 ?x1273 B) 0.0)) (or $x56 (<= (+ L_3 ?x443 B ?x438 S_4 S_0 L_1) 0.0)) (<= (+ ?x271 A_2 ?x425 ?x297) (- 5.0)) (<= (+ ?x432 ?x2339 ?x2331 ?x418 ?x1615) 0.0) (or $x56 (<= (+ ?x314 A_3 ?x440 L_2 ?x438 S_0 L_1) 0.0)) (or $x66 $x2342) (or $x515 (<= (+ S_5 ?x271 A_1 (* (- 2.0) S_4) ?x280) 0.0)) $x227151 $x223901 $x111105 (or $x56 (not (<= 0.0 (+ S_5 L_3 ?x443 ?x438 S_0 L_1)))) (or $x3279 (<= (+ ?x1322 ?x418 (* 2.0 S_1) L_0) 0.0)) (<= (+ L_1 ?x438 S_1) 0.0) (or $x515 $x1682) (or $x56 (<= (+ ?x1668 ?x1149 S_2 S_0 ?x1069) 0.0)) $x223100 $x225122 (or (<= (+ (* (- (/ 1.0 2.0)) S_5) (* (/ 1.0 2.0) S_2)) (- 5.0)) $x96148) $x100628 (or $x76 (<= (+ L_3 ?x443 B S_2) (- 5.0))) (or $x66 (<= (+ ?x314 A_3 B ?x1272 S_1 ?x1273) 0.0)) (or $x76 (<= (+ L_3 ?x443 A_2 ?x297) (- 5.0))) $x101216 $x107021 (or $x3279 (<= (+ L_3 ?x443 S_4 ?x418 S_1) 0.0)) (or $x3279 (<= (+ ?x4629 (* 3.0 S_1) ?x1295) 0.0)) (or $x3279 (<= (+ L_3 ?x443 ?x271 A_1 S_4 ?x418 ?x280) 0.0)) (or $x515 (not (<= 0.0 (+ S_5 ?x271 (* (- 2.0) S_4) S_2)))) (or $x56 $x1197 $x1611 (<= (+ ?x432 ?x314 A_3 A_2 ?x438) 0.0)) (or $x1957 (<= (+ ?x314 A_3 ?x440 L_2 ?x271 ?x411 S_0) 0.0)) (<= (+ (* (- (/ 1.0 2.0)) S_5) ?x4866 ?x4861 S_3) 0.0) $x113926 (or $x3279 (<= (+ ?x314 A_3 ?x1615 A_1 ?x4629 ?x280) 0.0)) (or $x76 $x3837 $x6279) (or $x56 $x15098) (or $x56 (<= ?x15120 0.0)) (or $x56 (not $x97931)) (or $x96148 $x102555) (or $x1957 (<= (+ ?x4117 ?x4952 ?x411 ?x6486 ?x4957) 0.0)) $x220893 (or $x1957 (<= (+ (* (/ 1.0 3.0) S_3) ?x411 ?x7012) 0.0)) (or $x56 (<= (+ ?x440 L_2 ?x1668 ?x1149 S_4 ?x5130 ?x1069) 0.0)) (or $x515 (<= (+ (* (- 2.0) S_4) ?x8761 ?x405) 0.0)) $x114083 (or $x1957 (<= (+ (* (/ 1.0 5.0) S_5) ?x411 (* (/ 4.0 5.0) S_0)) 0.0)) (or $x76 (<= (+ ?x2375 ?x2370 ?x1668 S_4 S_2) 0.0)) (or $x66 $x1265) (or $x56 (<= (+ ?x1674 ?x2686 S_3 ?x5130 ?x2703) 0.0)) (or $x56 $x17324) (or $x56 (<= (+ ?x440 L_2 B ?x438 S_3 S_0 L_1) 0.0)) (<= (+ (* (- (/ 1.0 2.0)) S_5) ?x4117 ?x4952 ?x4957) (- 5.0)) (or $x66 (<= (+ B ?x440 S_1 L_2) (- 5.0))) (or $x3279 (<= (+ S_5 (* (- 4.0) S_3) (* 3.0 S_1)) 0.0)) $x220306 (or $x66 (<= (+ S_5 ?x1968 ?x1304 (* 3.0 S_1) ?x1305) 0.0)) $x111852 (or $x66 $x543 $x2346) $x220332 (or $x3279 (<= (+ S_5 ?x1294 (* (- 4.0) S_3) ?x1296 ?x1671) 0.0)) $x54555 (or $x56 $x541 $x3430) (or $x3279 $x101344) $x220358 $x112419 (or $x515 (<= (+ ?x1322 (* (- 2.0) S_4) ?x8761 L_0) 0.0)) $x222630 (or $x3279 (<= (+ ?x15415 ?x15434 ?x4117 ?x418 ?x8126) 0.0)) $x223034 $x226692 (or $x1957 (not (<= 0.0 (+ S_5 L_3 ?x443 ?x271 ?x411 S_0)))) (or $x1957 (<= (+ ?x440 L_2 S_4 (* (- 2.0) S_2) ?x5130) 0.0)) (or $x1957 (<= (+ L_3 ?x443 S_4 ?x411 S_0) 0.0)) (or $x56 (not (<= 0.0 (+ S_5 ?x440 L_2 B ?x1149 ?x5130 ?x1069)))) (or $x76 (<= (+ S_5 ?x2378 ?x2372 ?x1674 (* 2.0 S_2)) 0.0)) $x221444 (or $x66 (<= (+ L_3 ?x443 ?x440 A_1 S_4 ?x280 L_2) 0.0)) $x69146 $x106094 (or $x3279 (<= (+ A_1 ?x418 ?x280) (- 5.0)) $x106154) $x71245 (or $x515 (<= (+ ?x4117 ?x4106 ?x4120 ?x4127) (- 5.0))) (or $x56 (<= (+ ?x3154 ?x3159 ?x2578 ?x1615 ?x438 L_1) 0.0)) $x225203 (or $x66 (<= (+ ?x1668 ?x1272 S_3 S_1 ?x1273) 0.0)) (or $x66 $x94673) (or $x515 (<= (+ ?x1671 ?x1169 (* (- 2.0) S_4) ?x405 ?x1187) 0.0)) $x227998 (or $x66 (<= (+ ?x1668 ?x1272 (* 3.0 S_1) ?x1295 ?x1273) 0.0)) (or $x515 $x1937) (or $x1957 (<= (+ S_5 L_3 ?x443 (* (- 2.0) S_2) ?x5130) 0.0)) (or $x91819 (<= (+ ?x8383 (* (/ 1.0 3.0) S_1)) (- 5.0)) $x96148) (or $x56 (<= (+ S_5 L_3 ?x443 ?x1668 ?x1149 ?x5130 ?x1069) 0.0)) $x107078 (or $x21975 (<= (+ ?x432 ?x1615 ?x1268 ?x1322 ?x1269 L_0) 0.0)) $x229007 (or $x1957 (<= (+ (* (/ 1.0 4.0) S_4) ?x411 (* (/ 3.0 4.0) S_0)) 0.0)) (or (<= (+ ?x432 ?x1069 ?x1149 ?x1671 ?x1169 ?x1187) 0.0) $x61243) (or $x76 $x2324) $x221696 (or $x515 (not $x95414)) (or $x76 (<= (+ S_5 ?x2378 ?x2372 B ?x1268 ?x1269) 0.0)) (or $x515 (<= (+ ?x4111 ?x4141 ?x4120 ?x405 ?x4142) 0.0) $x12493) $x224415 $x107455 (<= (+ ?x3154 ?x3159 ?x2578 ?x438 L_1 ?x1671) 0.0) (<= (+ ?x8537 ?x19977 ?x23133 ?x1322 ?x1677 L_0) 0.0) (or $x515 (not $x97666) $x98628 $x106154) (or $x515 $x97666 (<= (+ ?x4106 ?x4127 ?x4120) (- 5.0)) $x106154) (or $x3279 (<= (+ S_5 L_3 ?x443 ?x4629 (* 2.0 S_1)) 0.0)) $x225206 $x226278 (or $x66 (<= (+ (* (- (/ 1.0 2.0)) S_5) ?x4020 ?x4866 S_3 ?x4861) 0.0)) (or $x56 $x76 (<= 0.0 (+ ?x314 A_3 ?x1272 A_1 ?x280 ?x1273))) (or $x1957 $x23296) (or $x76 (<= (+ L_3 ?x443 A_1 ?x280) (- 10.0))) (or $x76 $x93886 (<= (+ ?x15404 ?x15409 ?x4020 ?x8126) (- 5.0))) (<= (+ ?x3154 ?x3159 ?x2578 ?x411 ?x1671) 0.0) $x222304 (or $x66 $x1950 (<= (+ ?x1668 ?x1272 S_4 S_0 ?x1273) 0.0)) $x108238 (or $x76 (<= (+ S_5 ?x2375 ?x2370 B A_1 ?x280) 0.0)) $x86981 (or $x515 $x35790) (or $x515 (<= (+ ?x1322 ?x4120 ?x8127 L_0) 0.0) $x31164) $x108519 (or $x3279 (not (<= 0.0 (+ S_5 L_3 ?x443 ?x271 ?x418 S_1)))) $x227926 (or $x76 $x3411 (<= (+ ?x15405 ?x15437 ?x4145 S_4 ?x8126) 0.0)) (or $x76 $x2382 (not $x108076)) (or $x76 (not (<= 0.0 (+ S_5 ?x2375 ?x2370 B S_2)))) (or $x2398 $x91371) (<= (+ ?x8537 ?x19977 ?x23133 ?x405 ?x1677) 0.0) $x109011 (or $x56 $x100682 (<= (+ ?x8383 (* (/ 2.0 3.0) B) ?x17320 S_2 ?x17157) 0.0)) $x80858 (or (<= (+ ?x432 ?x314 A_3 ?x438 S_2 L_1) 0.0) $x31721) (or $x56 (<= (+ ?x314 A_3 ?x1668 ?x2686 ?x5130 ?x2703) 0.0)) (or $x76 $x541 (= (+ L_3 ?x443 L_1 ?x438 ?x271 ?x1268 ?x1269) 0.0)) (or $x76 $x16785 (<= (+ ?x15404 ?x15409 ?x4020 ?x1322 ?x8127 L_0) 0.0)) $x227143 (or $x76 $x3775 (<= (+ S_5 ?x2375 ?x2370 ?x1668 S_1) 0.0)) (or $x66 $x46847) $x225960 $x227663 (or $x66 (<= (+ S_5 ?x1296 ?x1294 ?x1968 ?x1304 ?x1305) 0.0) $x26801) $x226993 (or $x515 (<= (+ (* (- 3.0) S_4) ?x8753 ?x1295) 0.0)) (or $x66 (not $x104464)) (<= (+ ?x19750 ?x19785 ?x23131 ?x1295 ?x6163) 0.0) (or $x515 (<= (+ ?x4120 ?x8126) (- 5.0)) $x98628) $x109823 $x225473 $x226716 (or $x66 (<= (+ L_3 ?x443 B ?x440 S_4 S_1 L_2) 0.0)) (or $x66 (not $x29689)) $x90061 $x109918 (or $x66 (<= (+ ?x280 A_1 ?x1668 ?x1272 S_3 ?x1273) 0.0) $x23629) $x109941 (or $x76 $x3411 $x20313 $x37356) $x111728 $x110182 $x95266 $x221039 $x224698 $x228782 (or $x1957 (<= (+ ?x440 L_2 S_3 ?x411 S_0) 0.0)) $x94914 (or $x1957 (not $x97557)) (or $x76 $x2382 $x98885 (not $x106943)) (or $x76 (<= (+ ?x2378 ?x2372 ?x1674 ?x8753 ?x1295) 0.0)) $x221499 (or $x76 (<= (+ ?x2375 ?x2370 ?x1268 ?x1269 ?x1668 S_1 ?x1295) 0.0) $x61477) $x111093 (or $x76 (<= (+ ?x2375 ?x2370 ?x1668 ?x8761 ?x405) 0.0)) $x96433 $x989 $x39 (not (>= (+ S_5 L_3 (* (- 1.0) A_4)) 0.0)) (<= (+ ?x1322 S_0 L_0) 0.0) (<= (+ ?x440 L_2 S_2) 0.0) (<= (+ L_3 ?x443 S_3) 0.0) (<= (+ ?x432 S_3) (- 5.0)) (<= (+ ?x3154 (* 3.0 S_3) ?x411) 0.0) (<= (+ ?x19750 (* 5.0 S_3) ?x1295) 0.0) $x33664 $x30946 (<= (+ ?x8537 (* 4.0 S_3) ?x405) 0.0))))))))))))))))))))))))))))))))))))))))))))))))))))))))))))))))))))))))))))))))))))))))))))))))))))))))))))))))))))))))))))))))))))))))))))))))))))))))))))))))))))))))))))))))))))))))))))))))))))))))))))))))))))))))))))))))))))))))))))))))))))))))))))))))
(check-sat)
