qe/outputs/qe/cbrdelay_obs_newl/T=6,eliminate=[I_0,I_1,I_2,I_3,I_4,I_5,L_4,L_5,C,lhs=B].smt2.z3
[And(A_3 + -1*L_3 <= S_5,
     A_5 >= A_4,
     A_3 >= A_2,
     A_2 >= A_1,
     A_1 >= A_0,
     S_5 >= S_4,
     S_4 >= S_3,
     S_3 >= S_2,
     S_2 >= S_1,
     S_1 >= S_0,
     Or(Not(0 <= -1*L_1 + L_0), L_1 == L_0),
     A_2 + -1*S_3 + -1*L_2 + -1*B <= 0,
     A_1 + -1*S_2 + -1*L_1 + -1*B <= 0,
     Or(L_2 == L_1, Not(0 <= L_1 + -1*L_2)),
     Or(L_1 == L_0, -1*A_1 + S_1 + L_1 + B <= 0),
     Or(L_2 == L_1, -1*A_2 + A_1 + -1*L_1 + L_2 <= -5),
     Or(L_1 == L_0,
        A_2 + -2*A_1 + S_0 + 2*L_1 + -1*L_2 + B <= 0),
     Or(L_2 == L_1, -1*A_2 + S_2 + L_2 + B <= 0),
     Or(L_2 == L_1,
        -1*A_2 + 2*A_1 + -1*A_0 + -2*L_1 + L_2 + -1*B + L_0 <=
        0),
     Or(L_1 == L_0,
        L_2 == L_1,
        L_3 == L_2,
        L_3 + -1*A_3 + 2*A_2 + -1*A_1 + L_1 + -2*L_2 == 0),
     Or(Not(0 <= -1*L_3 + L_2), L_3 == L_2),
     -1*L_3 + A_3 + -1*B + -1*S_4 <= 0,
     Or(L_2 == L_1,
        -2*A_2 + 3*A_1 + -1*S_0 + -3*L_1 + 2*L_2 + -1*B <= 0),
     Or(L_3 == L_2, L_3 + -1*A_3 + B + S_3 <= 0),
     Or(L_3 == L_2,
        2*L_3 + -2*A_3 + B + A_2 + S_4 + -1*L_2 <= 0),
     Or(0 <=
        L_3 + -1*A_3 + 2*A_2 + -1*A_1 + L_1 + -2*L_2 + -1*B,
        0 <= -1*L_1 + L_0,
        -1*S_5 + 3*A_2 + -2*A_1 + 2*L_1 + -3*L_2 + -1*B <= 0),
     Or(L_2 == L_1,
        -1*A_2 + 2*A_1 + -1*S_1 + -2*L_1 + L_2 + -1*B <= 0),
     Or(L_3 == L_2,
        L_3 + -1*A_3 + -1*B + 2*A_2 + -1*S_2 + -2*L_2 <= 0),
     Or(L_2 == L_1,
        Not(L_1 == L_0),
        -1*L_3 + A_3 + -2*A_2 + A_1 + 2*L_2 + -1*L_0 <= 0),
     Or(L_3 == L_2,
        3*L_3 + -3*A_3 + -1*B + 4*A_2 + -1*S_0 + -4*L_2 <= 0),
     Or(L_1 == L_0,
        0 <= L_3 + -1*A_3 + S_4,
        Not(0 <=
            L_3 +
            -1*A_3 +
            2*A_2 +
            -1*A_1 +
            L_1 +
            -2*L_2 +
            -1*B)),
     Or(L_2 == L_1,
        S_5 + B + -4*A_2 + 3*A_1 + -3*L_1 + 4*L_2 <= 0),
     Or(A_2 + -1*L_2 + -1*S_3 <= 0,
        2*A_1 + -1*A_0 + -1*S_3 + -2*L_1 + -2*B + L_0 <= 0),
     Or(A_2 + -1*L_2 + -1*S_3 <= 0,
        3*A_1 + -2*S_3 + -1*S_0 + -3*L_1 + -3*B <= 0),
     Or(A_2 + -1*L_2 + -1*S_3 <= 0,
        2*A_1 + -1*S_3 + -1*S_1 + -2*L_1 + -2*B <= 0),
     A_1 + -1*S_3 + -1*L_1 + -1*B <= -5,
     Or(A_2 + -1*L_2 + -1*S_3 <= 0, -1*S_3 + S_1 <= -5),
     Or(0 <= L_3 + -1*A_3 + S_4, -1*S_4 + S_2 <= -5),
     Or(0 <= L_3 + -1*A_3 + S_4, S_5 + -3*S_4 + 2*S_2 <= 0),
     Or(A_2 + -1*L_2 + -1*S_3 <= 0,
        S_4 + -3*S_3 + 2*S_1 <= 0),
     Or(L_1 == L_0, B + -1*A_1 + S_0 + L_1 <= -5),
     -1*S_5 + -2*L_3 + 2*A_3 + -1*A_2 + L_2 + -2*B <= 0,
     Or(-1*L_1 + A_1 + -1*S_2 <= 0, -1*S_2 + S_0 <= -5),
     Or(L_2 == L_1,
        -2*A_2 + A_1 + S_3 + -1*L_1 + 2*L_2 + B <= 0),
     Or(L_1 == L_0,
        L_3 + -1*A_3 + B + -1*A_1 + S_4 + S_0 + L_1 <= 0),
     -1*B + A_2 + -1*S_4 + -1*L_2 <= -5,
     -1*S_5 + -2*L_3 + 2*A_3 + -1*S_3 + -2*B <= 0,
     Or(L_1 == L_0,
        -1*L_3 + A_3 + -1*A_2 + L_2 + -1*A_1 + S_0 + L_1 <=
        0),
     Or(L_2 == L_1,
        -1*S_5 + -2*L_3 + 2*A_3 + -1*B + -1*A_2 + L_2 <= 0),
     Or(0 <= L_3 + -1*A_3 + S_4,
        S_5 + -1*B + A_1 + -2*S_4 + -1*L_1 <= 0),
     Or(A_2 + -1*L_2 + -1*S_3 <= 0,
        Not(0 <= S_5 + -3*B + 2*A_1 + -3*S_3 + -2*L_1)),
     Or(0 <= L_3 + -1*A_3 + S_4,
        2*A_2 +
        -2*L_2 +
        -1*B +
        A_1 +
        -2*S_4 +
        -1*S_0 +
        -1*L_1 <=
        0,
        Not(0 <=
            -(1/2)*B +
            -1*A_2 +
            (1/2)*A_1 +
            (1/2)*S_4 +
            -(1/2)*L_1 +
            L_2)),
     Or(0 <= L_3 + -1*A_3 + S_4,
        -(3/2)*B +
        (3/2)*A_1 +
        -1*A_0 +
        -(1/2)*S_4 +
        -(3/2)*L_1 +
        L_0 <=
        0,
        A_2 +
        -1*L_2 +
        -1*B +
        A_1 +
        -1*A_0 +
        -1*S_4 +
        -1*L_1 +
        L_0 <=
        0),
     Or(L_1 == L_0,
        Not(0 <= S_5 + L_3 + -1*A_3 + -1*A_1 + S_0 + L_1)),
     Or(A_2 + -1*L_2 + -1*S_3 <= 0,
        -1*A_0 + -1*S_3 + 2*S_1 + L_0 <= 0),
     L_1 + -1*A_1 + S_1 <= 0,
     Or(0 <= L_3 + -1*A_3 + S_4,
        -4*B + 4*A_2 + -3*S_4 + -1*S_0 + -4*L_2 <= 0),
     Or(L_1 == L_0, 2*B + -2*A_1 + S_2 + S_0 + 2*L_1 <= 0),
     Or(L_1 == L_0,
        0 <=
        L_3 + -1*A_3 + 2*A_2 + -1*A_1 + L_1 + -2*L_2 + -1*B,
        2*A_2 + -1*A_1 + -1*S_4 + L_1 + -2*L_2 + -1*B <= 0),
     Or(L_2 == L_1,
        Not(0 <=
            S_5 +
            L_3 +
            -1*A_3 +
            -1*B +
            -1*A_2 +
            A_1 +
            -1*L_1 +
            L_2)),
     Or(-(1/2)*S_5 + (1/2)*S_2 <= -5,
        -1*S_5 + -1*L_3 + A_3 <= -5),
     Or(A_2 + -1*L_2 + -1*S_3 <= 0,
        -(1/2)*S_3 + (1/2)*S_0 <= -5,
        0 <= -1*A_1 + (1/2)*S_3 + (1/2)*S_0 + L_1),
     Or(L_3 == L_2, L_3 + -1*A_3 + B + S_2 <= -5),
     Or(L_2 == L_1,
        -1*L_3 + A_3 + B + -2*A_2 + S_1 + 2*L_2 <= 0),
     Or(L_3 == L_2, L_3 + -1*A_3 + A_2 + -1*L_2 <= -5),
     Or(L_1 == L_0,
        -1*S_5 + -1*L_3 + A_3 + B + -1*A_1 + S_2 + L_1 <= 0,
        Not(0 <= L_3 + -1*A_3 + B + -1*A_1 + 2*S_2 + L_1)),
     Or(-1*S_5 +
        -1*L_3 +
        A_3 +
        -1*B +
        A_1 +
        -1*A_0 +
        -1*L_1 +
        L_0 <=
        0,
        -(1/2)*S_5 +
        (1/2)*A_2 +
        A_1 +
        -1*A_0 +
        -(1/2)*L_2 +
        -1*L_1 +
        -1*B +
        L_0 <=
        0,
        -(1/3)*S_5 +
        -(4/3)*B +
        (4/3)*A_1 +
        -1*A_0 +
        -(4/3)*L_1 +
        L_0 <=
        0),
     Or(A_2 + -1*L_2 + -1*S_3 <= 0,
        L_3 + -1*A_3 + S_4 + -1*S_3 + S_1 <= 0),
     Or(A_2 + -1*L_2 + -1*S_3 <= 0,
        -2*S_3 + 3*S_1 + -1*S_0 <= 0),
     Or(A_2 + -1*L_2 + -1*S_3 <= 0,
        L_3 + -1*A_3 + -1*B + A_1 + S_4 + -1*S_3 + -1*L_1 <=
        0),
     Or(0 <= L_3 + -1*A_3 + S_4,
        Not(0 <= S_5 + -1*B + -2*S_4 + S_2)),
     Or(L_1 == L_0,
        -1*S_5 + 3*A_2 + -2*A_1 + 2*L_1 + -3*L_2 + -1*B <= 0,
        Not(L_2 == L_1),
        -1*S_5 + -1*L_3 + A_3 + A_2 + -1*A_1 <= 0),
     Or(-1*L_1 + A_1 + -1*S_2 <= 0,
        -1*L_3 + A_3 + -1*A_2 + L_2 + -1*B + -1*S_2 + S_0 <=
        0),
     -(1/2)*S_5 + -(1/2)*A_2 + (1/2)*L_2 + S_3 <= 0,
     Or(-2*S_5 +
        -2*L_3 +
        2*A_3 +
...